70 0
89 79
82 94
20 56
100 60
51 97
37 83
61 112
112 43
111 61
102 71
31 62
15 55
22 92
46 46
112 71
27 53
17 63
13 43
97 88
122 72
82 57
36 107
18 102
27 68
47 118
50 78
83 97
94 78
118 47
77 99
78 76
106 40
121 63
82 103
103 99
42 52
115 65
129 45
5 36
20 47
21 40
5 114
30 45
77 82
42 65
25 62
45 85
98 58
116 67
60 90